(set-info :source |printed by MathSAT|)
(declare-fun a () Bool)
(declare-fun b () Bool)
(declare-fun flby3 () Bool)
(declare-fun _OK_ () Bool)
(declare-fun c () Bool)
(declare-fun flby2 () Bool)
(declare-fun flby () Bool)
(define-fun .def_83 () Bool (not flby3))
(define-fun .def_81 () Bool (not flby2))
(define-fun .def_80 () Bool (not flby))
(define-fun .def_82 () Bool (and .def_80 .def_81))
(define-fun .def_84 () Bool (and .def_82 .def_83))
(define-fun .def_78 () Bool (= c flby3))
(define-fun .def_75 () Bool (= b flby2))
(define-fun .def_71 () Bool (= a flby))
(define-fun .def_67 () Bool (and a c))
(define-fun .def_68 () Bool (not .def_67))
(define-fun .def_69 () Bool (= _OK_ .def_68))
(define-fun .def_72 () Bool (and .def_69 .def_71))
(define-fun .def_76 () Bool (and .def_72 .def_75))
(define-fun .def_79 () Bool (and .def_76 .def_78))
(define-fun .def_85 () Bool (and .def_79 .def_84))
(assert .def_85)
